
Gurobi 9.5.2 (mac64[arm]) logging started Tue Apr 11 21:06:55 2023

Set parameter LogFile to value "./ccga_results/2023-04-11 21-06-53-924/MSP_TimeStampConvert_gurobi_log.txt"

Gurobi 9.5.2 (mac64[arm]) logging started Tue Apr 11 21:06:55 2023

Set parameter LogFile to value "./ccga_results/2023-04-11 21-06-53-924/MSP_TimeStampConvert_gurobi_log.txt"
Set parameter TimeLimit to value 180
Gurobi Optimizer version 9.5.2 build v9.5.2rc0 (mac64[arm])
Thread count: 8 physical cores, 8 logical processors, using up to 8 threads
Optimize a model with 600 rows, 457 columns and 1482 nonzeros
Model fingerprint: 0x0d62902c
Variable types: 25 continuous, 432 integer (432 binary)
Coefficient statistics:
  Matrix range     [1e+00, 1e+00]
  Objective range  [1e+00, 1e+00]
  Bounds range     [5e+02, 5e+02]
  RHS range        [1e+00, 1e+00]
Found heuristic solution: objective 12000.000000

Explored 0 nodes (0 simplex iterations) in 0.00 seconds (0.00 work units)
Thread count was 1 (of 8 available processors)

Solution count 1: 12000 

Optimal solution found (tolerance 5.00e-02)
Best objective 1.200000000000e+04, best bound 1.200000000000e+04, gap 0.0000%

User-callback calls 21, time in user-callback 0.00 sec
Gurobi Optimizer version 9.5.2 build v9.5.2rc0 (mac64[arm])
Thread count: 8 physical cores, 8 logical processors, using up to 8 threads
Optimize a model with 2173 rows, 961 columns and 6491 nonzeros
Model fingerprint: 0xca7b21b0
Variable types: 481 continuous, 480 integer (480 binary)
Coefficient statistics:
  Matrix range     [4e-01, 8e+02]
  Objective range  [1e+00, 1e+00]
  Bounds range     [5e+02, 5e+02]
  RHS range        [1e+00, 1e+08]

MIP start from previous solve did not produce a new incumbent solution

Presolve removed 495 rows and 155 columns
Presolve time: 0.01s
Presolved: 1678 rows, 806 columns, 5565 nonzeros
Variable types: 406 continuous, 400 integer (400 binary)
Found heuristic solution: objective 8945.4138220
Found heuristic solution: objective 9020.4138220

Root relaxation: objective 1.169900e+04, 1039 iterations, 0.01 seconds (0.02 work units)

    Nodes    |    Current Node    |     Objective Bounds      |     Work
 Expl Unexpl |  Obj  Depth IntInf | Incumbent    BestBd   Gap | It/Node Time

     0     0 11699.0026    0    7 9020.41382 11699.0026  29.7%     -    0s
H    0     0                    11693.045156 11699.0026  0.05%     -    0s

Explored 1 nodes (1410 simplex iterations) in 0.05 seconds (0.07 work units)
Thread count was 8 (of 8 available processors)

Solution count 3: 11693 9020.41 8945.41 

Optimal solution found (tolerance 5.00e-02)
Best objective 1.169304515604e+04, best bound 1.169900259000e+04, gap 0.0509%

User-callback calls 711, time in user-callback 0.00 sec
Gurobi Optimizer version 9.5.2 build v9.5.2rc0 (mac64[arm])
Thread count: 8 physical cores, 8 logical processors, using up to 8 threads
Optimize a model with 3746 rows, 1465 columns and 11500 nonzeros
Model fingerprint: 0xc2156e90
Variable types: 937 continuous, 528 integer (528 binary)
Coefficient statistics:
  Matrix range     [4e-01, 8e+02]
  Objective range  [1e+00, 1e+00]
  Bounds range     [5e+02, 5e+02]
  RHS range        [1e+00, 1e+08]

MIP start from previous solve did not produce a new incumbent solution

Presolve removed 910 rows and 273 columns
Presolve time: 0.03s
Presolved: 2836 rows, 1192 columns, 9839 nonzeros
Variable types: 792 continuous, 400 integer (400 binary)
Found heuristic solution: objective 6778.1493437

Root relaxation: objective 1.169900e+04, 1122 iterations, 0.02 seconds (0.02 work units)

    Nodes    |    Current Node    |     Objective Bounds      |     Work
 Expl Unexpl |  Obj  Depth IntInf | Incumbent    BestBd   Gap | It/Node Time

     0     0 11699.0026    0    5 6778.14934 11699.0026  72.6%     -    0s
H    0     0                    11666.888107 11699.0026  0.28%     -    0s

Explored 1 nodes (2152 simplex iterations) in 0.11 seconds (0.12 work units)
Thread count was 8 (of 8 available processors)

Solution count 2: 11666.9 6778.15 

Optimal solution found (tolerance 5.00e-02)
Best objective 1.166688810711e+04, best bound 1.169900259000e+04, gap 0.2753%

User-callback calls 632, time in user-callback 0.00 sec
Gurobi Optimizer version 9.5.2 build v9.5.2rc0 (mac64[arm])
Thread count: 8 physical cores, 8 logical processors, using up to 8 threads
Optimize a model with 5319 rows, 1969 columns and 16509 nonzeros
Model fingerprint: 0xde27a364
Variable types: 1393 continuous, 576 integer (576 binary)
Coefficient statistics:
  Matrix range     [4e-01, 8e+02]
  Objective range  [1e+00, 1e+00]
  Bounds range     [5e+02, 5e+02]
  RHS range        [1e+00, 1e+08]

MIP start from previous solve did not produce a new incumbent solution

Presolve removed 1324 rows and 392 columns
Presolve time: 0.03s
Presolved: 3995 rows, 1577 columns, 14109 nonzeros
Variable types: 1177 continuous, 400 integer (400 binary)
Found heuristic solution: objective 5961.8275160

Root relaxation: objective 1.146080e+04, 1814 iterations, 0.03 seconds (0.04 work units)

    Nodes    |    Current Node    |     Objective Bounds      |     Work
 Expl Unexpl |  Obj  Depth IntInf | Incumbent    BestBd   Gap | It/Node Time

     0     0 11460.8007    0   23 5961.82752 11460.8007  92.2%     -    0s
H    0     0                    11146.658980 11460.8007  2.82%     -    0s

Cutting planes:
  Gomory: 10
  Implied bound: 1
  MIR: 14
  Flow cover: 36
  Relax-and-lift: 6

Explored 1 nodes (3731 simplex iterations) in 0.18 seconds (0.28 work units)
Thread count was 8 (of 8 available processors)

Solution count 2: 11146.7 5961.83 

Optimal solution found (tolerance 5.00e-02)
Best objective 1.114665898011e+04, best bound 1.146080070957e+04, gap 2.8183%

User-callback calls 663, time in user-callback 0.00 sec
Gurobi Optimizer version 9.5.2 build v9.5.2rc0 (mac64[arm])
Thread count: 8 physical cores, 8 logical processors, using up to 8 threads
Optimize a model with 6892 rows, 2473 columns and 21518 nonzeros
Model fingerprint: 0x05b9adfb
Variable types: 1849 continuous, 624 integer (624 binary)
Coefficient statistics:
  Matrix range     [4e-01, 8e+02]
  Objective range  [1e+00, 1e+00]
  Bounds range     [5e+02, 5e+02]
  RHS range        [1e+00, 1e+08]

MIP start from previous solve did not produce a new incumbent solution

Presolve removed 1737 rows and 510 columns
Presolve time: 0.04s
Presolved: 5155 rows, 1963 columns, 17967 nonzeros
Variable types: 1560 continuous, 403 integer (400 binary)
Found heuristic solution: objective 5733.2243443

Root relaxation: objective 1.105008e+04, 2644 iterations, 0.04 seconds (0.04 work units)

    Nodes    |    Current Node    |     Objective Bounds      |     Work
 Expl Unexpl |  Obj  Depth IntInf | Incumbent    BestBd   Gap | It/Node Time

     0     0 11050.0809    0   41 5733.22434 11050.0809  92.7%     -    0s
H    0     0                    10680.101522 11050.0809  3.46%     -    0s

Cutting planes:
  Gomory: 9
  Cover: 1
  Implied bound: 3
  MIR: 42
  Flow cover: 43
  Relax-and-lift: 3

Explored 1 nodes (4210 simplex iterations) in 0.24 seconds (0.32 work units)
Thread count was 8 (of 8 available processors)

Solution count 2: 10680.1 5733.22 

Optimal solution found (tolerance 5.00e-02)
Best objective 1.068010152211e+04, best bound 1.105008091225e+04, gap 3.4642%

User-callback calls 708, time in user-callback 0.00 sec
Gurobi Optimizer version 9.5.2 build v9.5.2rc0 (mac64[arm])
Thread count: 8 physical cores, 8 logical processors, using up to 8 threads
Optimize a model with 8465 rows, 2977 columns and 26527 nonzeros
Model fingerprint: 0xd7c50e8d
Variable types: 2305 continuous, 672 integer (672 binary)
Coefficient statistics:
  Matrix range     [4e-01, 8e+02]
  Objective range  [1e+00, 1e+00]
  Bounds range     [5e+02, 5e+02]
  RHS range        [1e+00, 1e+08]

MIP start from previous solve did not produce a new incumbent solution

Presolve removed 2152 rows and 630 columns
Presolve time: 0.06s
Presolved: 6313 rows, 2347 columns, 22095 nonzeros
Variable types: 1944 continuous, 403 integer (400 binary)
Found heuristic solution: objective 5206.0704751

Root relaxation: objective 1.052199e+04, 4215 iterations, 0.10 seconds (0.10 work units)

    Nodes    |    Current Node    |     Objective Bounds      |     Work
 Expl Unexpl |  Obj  Depth IntInf | Incumbent    BestBd   Gap | It/Node Time

     0     0 10521.9884    0   68 5206.07048 10521.9884   102%     -    0s
H    0     0                    10186.957584 10521.9884  3.29%     -    0s

Cutting planes:
  Gomory: 18
  Cover: 2
  Implied bound: 3
  MIR: 73
  Flow cover: 80
  Relax-and-lift: 5

Explored 1 nodes (6686 simplex iterations) in 0.43 seconds (0.54 work units)
Thread count was 8 (of 8 available processors)

Solution count 2: 10187 5206.07 

Optimal solution found (tolerance 5.00e-02)
Best objective 1.018695758411e+04, best bound 1.052198844589e+04, gap 3.2888%

User-callback calls 757, time in user-callback 0.00 sec
Gurobi Optimizer version 9.5.2 build v9.5.2rc0 (mac64[arm])
Thread count: 8 physical cores, 8 logical processors, using up to 8 threads
Optimize a model with 10038 rows, 3481 columns and 31536 nonzeros
Model fingerprint: 0xf2636301
Variable types: 2761 continuous, 720 integer (720 binary)
Coefficient statistics:
  Matrix range     [4e-01, 8e+02]
  Objective range  [1e+00, 1e+00]
  Bounds range     [5e+02, 5e+02]
  RHS range        [1e+00, 1e+08]

MIP start from previous solve did not produce a new incumbent solution

Presolve removed 2615 rows and 759 columns
Presolve time: 0.07s
Presolved: 7423 rows, 2722 columns, 25935 nonzeros
Variable types: 2328 continuous, 394 integer (391 binary)
Found heuristic solution: objective 4878.1385085

Root relaxation: objective 9.895329e+03, 5100 iterations, 0.13 seconds (0.13 work units)

    Nodes    |    Current Node    |     Objective Bounds      |     Work
 Expl Unexpl |  Obj  Depth IntInf | Incumbent    BestBd   Gap | It/Node Time

     0     0 9895.32890    0   90 4878.13851 9895.32890   103%     -    0s
H    0     0                    9186.5856662 9895.32890  7.71%     -    0s
H    0     0                    9455.6244282 9885.84557  4.55%     -    0s
     0     0 9885.84557    0  161 9455.62443 9885.84557  4.55%     -    0s

Cutting planes:
  Gomory: 22
  Cover: 1
  Implied bound: 3
  MIR: 103
  Flow cover: 122
  Relax-and-lift: 5

Explored 1 nodes (8609 simplex iterations) in 0.56 seconds (0.71 work units)
Thread count was 8 (of 8 available processors)

Solution count 3: 9455.62 9186.59 4878.14 

Optimal solution found (tolerance 5.00e-02)
Best objective 9.455624428222e+03, best bound 9.885845572749e+03, gap 4.5499%

User-callback calls 820, time in user-callback 0.00 sec
Gurobi Optimizer version 9.5.2 build v9.5.2rc0 (mac64[arm])
Thread count: 8 physical cores, 8 logical processors, using up to 8 threads
Optimize a model with 11611 rows, 3985 columns and 36545 nonzeros
Model fingerprint: 0xb4031953
Variable types: 3217 continuous, 768 integer (768 binary)
Coefficient statistics:
  Matrix range     [4e-01, 8e+02]
  Objective range  [1e+00, 1e+00]
  Bounds range     [5e+02, 5e+02]
  RHS range        [1e+00, 1e+08]

MIP start from previous solve did not produce a new incumbent solution

Presolve removed 3036 rows and 879 columns
Presolve time: 0.09s
Presolved: 8575 rows, 3106 columns, 30045 nonzeros
Variable types: 2712 continuous, 394 integer (391 binary)
Found heuristic solution: objective 4751.9389464

Root relaxation: objective 9.199292e+03, 5923 iterations, 0.17 seconds (0.18 work units)

    Nodes    |    Current Node    |     Objective Bounds      |     Work
 Expl Unexpl |  Obj  Depth IntInf | Incumbent    BestBd   Gap | It/Node Time

     0     0 9199.29237    0   91 4751.93895 9199.29237  93.6%     -    0s
H    0     0                    7533.8095761 9199.29237  22.1%     -    0s
     0     0 9169.71457    0  192 7533.80958 9169.71457  21.7%     -    0s
H    0     0                    7888.0048647 9169.71457  16.2%     -    0s
     0     0 9164.48175    0  192 7888.00486 9164.48175  16.2%     -    0s
     0     0 9164.48175    0  189 7888.00486 9164.48175  16.2%     -    0s
H    0     0                    8234.0098886 9154.60929  11.2%     -    0s
     0     0 9149.73753    0  181 8234.00989 9149.73753  11.1%     -    0s
     0     0 9149.73753    0  191 8234.00989 9149.73753  11.1%     -    0s
     0     0 9149.73753    0  185 8234.00989 9149.73753  11.1%     -    0s
     0     0 9149.73753    0  185 8234.00989 9149.73753  11.1%     -    0s
     0     0 9149.73753    0  209 8234.00989 9149.73753  11.1%     -    0s
     0     0 9149.73753    0  209 8234.00989 9149.73753  11.1%     -    0s
H    0     0                    8474.1162878 9149.73753  7.97%     -    1s
     0     0 9143.05507    0  226 8474.11629 9143.05507  7.89%     -    1s
     0     0 9137.86204    0  222 8474.11629 9137.86204  7.83%     -    1s
H    0     0                    8602.6477207 9132.97220  6.16%     -    1s
     0     0 9132.97220    0  216 8602.64772 9132.97220  6.16%     -    1s
     0     0 9132.51687    0  219 8602.64772 9132.51687  6.16%     -    1s
     0     0 9132.51687    0  219 8602.64772 9132.51687  6.16%     -    1s
     0     0 9131.36489    0  192 8602.64772 9131.36489  6.15%     -    1s
     0     0 9131.20725    0  201 8602.64772 9131.20725  6.14%     -    1s
     0     0 9131.20658    0  201 8602.64772 9131.20658  6.14%     -    1s
     0     0 9131.19138    0  209 8602.64772 9131.19138  6.14%     -    1s
     0     0 9131.15790    0  222 8602.64772 9131.15790  6.14%     -    1s
     0     0 9131.15781    0  222 8602.64772 9131.15781  6.14%     -    1s
     0     0 9130.98371    0  218 8602.64772 9130.98371  6.14%     -    1s
     0     0 9130.98371    0  215 8602.64772 9130.98371  6.14%     -    1s
     0     0 9130.95859    0  216 8602.64772 9130.95859  6.14%     -    1s
     0     0 9130.95859    0  221 8602.64772 9130.95859  6.14%     -    1s
     0     0 9130.82504    0  220 8602.64772 9130.82504  6.14%     -    1s
     0     0 9130.82504    0  177 8602.64772 9130.82504  6.14%     -    2s
     0     2 9130.82504    0  171 8602.64772 9130.82504  6.14%     -    2s
H  364   365                    8604.4820358 9123.88116  6.04%   205    3s
H  444   455                    8635.7771178 9123.88116  5.65%   186    3s
H  453   452                    8653.4724927 9123.88116  5.44%   183    3s
H  555   486                    8655.1434657 9122.00899  5.39%   184    3s
H  720   595                    8659.3601772 9122.00899  5.34%   194    4s
H  909   749                    8670.4249602 9122.00899  5.21%   184    4s
  1070   877 9045.29290   18  115 8670.42496 9122.00709  5.21%   184    5s
* 1332  1133              77    8675.4722752 9122.00709  5.15%   174    5s
  1494  1164 9031.91173   12  218 8675.47228 9116.06959  5.08%   170   10s
  1514  1181 9026.29454   14  191 8675.47228 9112.34549  5.04%   196   16s

Cutting planes:
  Gomory: 11
  Cover: 3
  Implied bound: 2
  MIR: 290
  Flow cover: 361
  Relax-and-lift: 11

Explored 1528 nodes (322408 simplex iterations) in 17.43 seconds (27.58 work units)
Thread count was 8 (of 8 available processors)

Solution count 10: 8675.47 8670.42 8659.36 ... 8234.01

Optimal solution found (tolerance 5.00e-02)
Best objective 8.675472275235e+03, best bound 9.108999964468e+03, gap 4.9972%

User-callback calls 8477, time in user-callback 0.00 sec
Gurobi Optimizer version 9.5.2 build v9.5.2rc0 (mac64[arm])
Thread count: 8 physical cores, 8 logical processors, using up to 8 threads
Optimize a model with 13184 rows, 4489 columns and 41554 nonzeros
Model fingerprint: 0x7eb8bed2
Variable types: 3673 continuous, 816 integer (816 binary)
Coefficient statistics:
  Matrix range     [4e-01, 8e+02]
  Objective range  [1e+00, 1e+00]
  Bounds range     [5e+02, 5e+02]
  RHS range        [1e+00, 1e+08]

MIP start from previous solve did not produce a new incumbent solution

Presolve removed 3457 rows and 999 columns
Presolve time: 0.09s
Presolved: 9727 rows, 3490 columns, 34092 nonzeros
Variable types: 3096 continuous, 394 integer (391 binary)
Found heuristic solution: objective 4575.1907684
Found heuristic solution: objective 4617.7659148

Root relaxation: objective 9.151967e+03, 7014 iterations, 0.27 seconds (0.26 work units)

    Nodes    |    Current Node    |     Objective Bounds      |     Work
 Expl Unexpl |  Obj  Depth IntInf | Incumbent    BestBd   Gap | It/Node Time

     0     0 9151.96707    0  116 4617.76591 9151.96707  98.2%     -    0s
H    0     0                    7166.4536849 9151.96707  27.7%     -    0s
     0     0 8993.06798    0  197 7166.45368 8993.06798  25.5%     -    1s
H    0     0                    7398.6477834 8993.06798  21.6%     -    1s
H    0     0                    7447.3555771 8985.17126  20.6%     -    1s
     0     0 8985.17126    0  199 7447.35558 8985.17126  20.6%     -    1s
     0     0 8985.17126    0  187 7447.35558 8985.17126  20.6%     -    1s
     0     0 8963.04675    0  211 7447.35558 8963.04675  20.4%     -    1s
H    0     0                    8109.5083771 8958.82691  10.5%     -    1s
     0     0 8958.82691    0  188 8109.50838 8958.82691  10.5%     -    1s
     0     0 8958.03611    0  211 8109.50838 8958.03611  10.5%     -    1s
     0     0 8957.68322    0  196 8109.50838 8957.68322  10.5%     -    1s
     0     0 8957.68322    0  196 8109.50838 8957.68322  10.5%     -    1s
     0     0 8932.70047    0  240 8109.50838 8932.70047  10.2%     -    1s
     0     0 8932.19068    0  234 8109.50838 8932.19068  10.1%     -    1s
     0     0 8932.19068    0  232 8109.50838 8932.19068  10.1%     -    1s
H    0     0                    8341.6782093 8932.19068  7.08%     -    1s
     0     0 8930.56412    0  231 8341.67821 8930.56412  7.06%     -    1s
     0     0 8929.53872    0  252 8341.67821 8929.53872  7.05%     -    1s
H    0     0                    8430.9253515 8929.40966  5.91%     -    1s
     0     0 8929.40966    0  249 8430.92535 8929.40966  5.91%     -    1s
     0     0 8929.35773    0  249 8430.92535 8929.35773  5.91%     -    1s
H    0     0                    8449.0238615 8929.35773  5.69%     -    1s
     0     0 8928.18101    0  247 8449.02386 8928.18101  5.67%     -    1s
     0     0 8928.18101    0  244 8449.02386 8928.18101  5.67%     -    1s
     0     0 8927.64049    0  234 8449.02386 8927.64049  5.66%     -    2s
     0     0 8927.37475    0  240 8449.02386 8927.37475  5.66%     -    2s
     0     0 8927.29685    0  227 8449.02386 8927.29685  5.66%     -    2s
     0     0 8927.28166    0  227 8449.02386 8927.28166  5.66%     -    2s
     0     0 8927.21987    0  238 8449.02386 8927.21987  5.66%     -    2s
     0     0 8927.21987    0  177 8449.02386 8927.21987  5.66%     -    2s
     0     2 8927.21987    0  177 8449.02386 8927.21987  5.66%     -    2s
H  428   375                    8450.8037515 8921.70135  5.57%   306    4s
   561   530 8740.14832   29   91 8450.80375 8921.70135  5.57%   285    5s
H  638   553                    8480.5458995 8921.70135  5.20%   277    5s
  1486  1177 8557.28894   22   90 8480.54590 8920.84729  5.19%   275   10s
  1510  1193 8797.20524   28  139 8480.54590 8908.51504  5.05%   271   15s
H 1513  1134                    8510.7333908 8908.48994  4.67%   271   16s

Cutting planes:
  Gomory: 18
  Implied bound: 4
  Projected implied bound: 2
  MIR: 323
  Flow cover: 413
  RLT: 1
  Relax-and-lift: 22

Explored 1513 nodes (481431 simplex iterations) in 16.24 seconds (21.77 work units)
Thread count was 8 (of 8 available processors)

Solution count 10: 8510.73 8480.55 8450.8 ... 7166.45

Optimal solution found (tolerance 5.00e-02)
Best objective 8.510733390790e+03, best bound 8.908426941543e+03, gap 4.6728%

User-callback calls 7763, time in user-callback 0.00 sec
Gurobi Optimizer version 9.5.2 build v9.5.2rc0 (mac64[arm])
Thread count: 8 physical cores, 8 logical processors, using up to 8 threads
Optimize a model with 14757 rows, 4993 columns and 46563 nonzeros
Model fingerprint: 0xb5d81a17
Variable types: 4129 continuous, 864 integer (864 binary)
Coefficient statistics:
  Matrix range     [4e-01, 8e+02]
  Objective range  [1e+00, 1e+00]
  Bounds range     [5e+02, 5e+02]
  RHS range        [1e+00, 1e+08]

MIP start from previous solve did not produce a new incumbent solution

Presolve removed 3878 rows and 1119 columns
Presolve time: 0.11s
Presolved: 10879 rows, 3874 columns, 38034 nonzeros
Variable types: 3480 continuous, 394 integer (391 binary)
Found heuristic solution: objective 4507.4564097
Found heuristic solution: objective 5052.6225510

Root relaxation: objective 8.803722e+03, 8135 iterations, 0.32 seconds (0.35 work units)

    Nodes    |    Current Node    |     Objective Bounds      |     Work
 Expl Unexpl |  Obj  Depth IntInf | Incumbent    BestBd   Gap | It/Node Time

     0     0 8803.72170    0  124 5052.62255 8803.72170  74.2%     -    0s
H    0     0                    6971.2777314 8803.72170  26.3%     -    1s
     0     0 8682.47509    0  198 6971.27773 8682.47509  24.5%     -    1s
H    0     0                    7499.8083834 8682.47509  15.8%     -    1s
     0     0 8618.46022    0  198 7499.80838 8618.46022  14.9%     -    1s
     0     0 8618.42598    0  207 7499.80838 8618.42598  14.9%     -    1s
     0     0 8618.42598    0  207 7499.80838 8618.42598  14.9%     -    1s
     0     0 8616.06982    0  223 7499.80838 8616.06982  14.9%     -    1s
     0     0 8611.08383    0  219 7499.80838 8611.08383  14.8%     -    1s
     0     0 8610.92437    0  224 7499.80838 8610.92437  14.8%     -    1s
     0     0 8610.75945    0  224 7499.80838 8610.75945  14.8%     -    1s
     0     0 8610.72692    0  226 7499.80838 8610.72692  14.8%     -    1s
H    0     0                    7669.8362761 8610.72692  12.3%     -    1s
     0     0 8595.84489    0  232 7669.83628 8595.84489  12.1%     -    1s
     0     0 8591.76239    0  220 7669.83628 8591.76239  12.0%     -    1s
     0     0 8590.76854    0  225 7669.83628 8590.76854  12.0%     -    1s
     0     0 8590.76854    0  225 7669.83628 8590.76854  12.0%     -    1s
H    0     0                    7764.9414062 8590.76854  10.6%     -    1s
     0     0 8586.52643    0  227 7764.94141 8586.52643  10.6%     -    1s
     0     0 8586.52532    0  229 7764.94141 8586.52532  10.6%     -    1s
H    0     0                    7855.8942853 8586.52532  9.30%     -    2s
     0     0 8586.26661    0  232 7855.89429 8586.26661  9.30%     -    2s
H    0     0                    7918.0031321 8585.80811  8.43%     -    2s
     0     0 8585.80811    0  229 7918.00313 8585.80811  8.43%     -    2s
     0     0 8585.80811    0  231 7918.00313 8585.80811  8.43%     -    2s
     0     0 8584.50322    0  223 7918.00313 8584.50322  8.42%     -    2s
     0     0 8584.48978    0  226 7918.00313 8584.48978  8.42%     -    2s
     0     0 8584.48206    0  231 7918.00313 8584.48206  8.42%     -    2s
     0     0 8584.48206    0  234 7918.00313 8584.48206  8.42%     -    2s
     0     0 8584.33276    0  212 7918.00313 8584.33276  8.42%     -    2s
     0     0 8584.33276    0  149 7918.00313 8584.33276  8.42%     -    2s
     0     2 8584.33276    0  148 7918.00313 8584.33276  8.42%     -    2s
H  214   222                    7922.0013206 8579.83067  8.30%   302    4s
H  224   247                    7952.5036764 8579.83067  7.89%   292    4s
H  381   374                    7977.3414624 8579.83067  7.55%   245    4s
   421   401 8081.08318   40   68 7977.34146 8579.83067  7.55%   238    5s
H  428   401                    7992.0279824 8579.83067  7.35%   237    5s
H  763   682                    8027.2327914 8578.88765  6.87%   226    6s
  1486  1248 8146.51805   33   90 8027.23279 8575.67468  6.83%   208   10s
  1506  1262 8119.30695   25  255 8027.23279 8543.59951  6.43%   205   15s
H 1506  1198                    8040.5966209 8543.59951  6.26%   205   15s
H 1510  1140                    8101.9574644 8543.44748  5.45%   205   17s
  1520  1147 8505.13690   28  238 8101.95746 8542.43078  5.44%   203   20s
  1529  1156 8541.90274   16  222 8101.95746 8542.28143  5.43%   250   26s
  1750  1311 8400.06996   34  158 8101.95746 8539.54503  5.40%   287   30s
H 1951  1368                    8121.1215228 8539.54503  5.15%   295   32s
H 2008  1335                    8159.4719182 8539.54503  4.66%   297   33s

Cutting planes:
  Gomory: 23
  Cover: 1
  MIR: 497
  Flow cover: 708
  RLT: 1
  Relax-and-lift: 17

Explored 2017 nodes (622504 simplex iterations) in 33.07 seconds (56.30 work units)
Thread count was 8 (of 8 available processors)

Solution count 10: 8159.47 8121.12 8101.96 ... 7918

Optimal solution found (tolerance 5.00e-02)
Best objective 8.159471918195e+03, best bound 8.539545027515e+03, gap 4.6581%

User-callback calls 13572, time in user-callback 0.01 sec
Gurobi Optimizer version 9.5.2 build v9.5.2rc0 (mac64[arm])
Thread count: 8 physical cores, 8 logical processors, using up to 8 threads
Optimize a model with 16330 rows, 5497 columns and 51572 nonzeros
Model fingerprint: 0xf599321a
Variable types: 4585 continuous, 912 integer (912 binary)
Coefficient statistics:
  Matrix range     [4e-01, 8e+02]
  Objective range  [1e+00, 1e+00]
  Bounds range     [5e+02, 5e+02]
  RHS range        [1e+00, 1e+08]

MIP start from previous solve did not produce a new incumbent solution

Presolve removed 4299 rows and 1239 columns
Presolve time: 0.14s
Presolved: 12031 rows, 4258 columns, 42081 nonzeros
Variable types: 3864 continuous, 394 integer (391 binary)
Found heuristic solution: objective 4452.8285167
Found heuristic solution: objective 4994.0510293

Root relaxation: objective 8.695655e+03, 9370 iterations, 0.44 seconds (0.44 work units)

    Nodes    |    Current Node    |     Objective Bounds      |     Work
 Expl Unexpl |  Obj  Depth IntInf | Incumbent    BestBd   Gap | It/Node Time

     0     0 8695.65479    0  117 4994.05103 8695.65479  74.1%     -    1s
H    0     0                    6376.9859273 8695.65479  36.4%     -    1s
     0     0 8525.85537    0  199 6376.98593 8525.85537  33.7%     -    1s
H    0     0                    6437.8965162 8525.85537  32.4%     -    1s
     0     0 8495.33044    0  195 6437.89652 8495.33044  32.0%     -    1s
     0     0 8495.31979    0  212 6437.89652 8495.31979  32.0%     -    1s
     0     0 8484.97993    0  223 6437.89652 8484.97993  31.8%     -    1s
     0     0 8478.28717    0  252 6437.89652 8478.28717  31.7%     -    1s
     0     0 8475.82797    0  245 6437.89652 8475.82797  31.7%     -    1s
     0     0 8475.45809    0  239 6437.89652 8475.45809  31.6%     -    1s
     0     0 8475.45809    0  239 6437.89652 8475.45809  31.6%     -    1s
     0     0 8467.47728    0  230 6437.89652 8467.47728  31.5%     -    2s
H    0     0                    6880.5958035 8464.52095  23.0%     -    2s
     0     0 8464.52095    0  235 6880.59580 8464.52095  23.0%     -    2s
     0     0 8464.06209    0  235 6880.59580 8464.06209  23.0%     -    2s
     0     0 8464.06209    0  235 6880.59580 8464.06209  23.0%     -    2s
H    0     0                    7786.6951976 8464.06209  8.70%     -    2s
     0     0 8462.94069    0  230 7786.69520 8462.94069  8.68%     -    2s
     0     0 8460.87982    0  233 7786.69520 8460.87982  8.66%     -    2s
H    0     0                    7801.6460576 8460.38856  8.44%     -    2s
     0     0 8460.38856    0  235 7801.64606 8460.38856  8.44%     -    2s
     0     0 8460.01485    0  238 7801.64606 8460.01485  8.44%     -    2s
     0     0 8458.98351    0  234 7801.64606 8458.98351  8.43%     -    2s
     0     0 8458.98351    0  234 7801.64606 8458.98351  8.43%     -    2s
     0     0 8458.28740    0  229 7801.64606 8458.28740  8.42%     -    2s
     0     0 8456.16638    0  231 7801.64606 8456.16638  8.39%     -    2s
     0     0 8456.15504    0  237 7801.64606 8456.15504  8.39%     -    2s
     0     0 8456.15158    0  240 7801.64606 8456.15158  8.39%     -    2s
     0     0 8456.15158    0  240 7801.64606 8456.15158  8.39%     -    2s
     0     0 8456.15004    0  242 7801.64606 8456.15004  8.39%     -    2s
     0     0 8456.15004    0  239 7801.64606 8456.15004  8.39%     -    2s
     0     0 8455.93366    0  239 7801.64606 8455.93366  8.39%     -    3s
     0     0 8455.93366    0  151 7801.64606 8455.93366  8.39%     -    3s
     0     2 8455.93366    0  147 7801.64606 8455.93366  8.39%     -    3s
H  112   117                    7819.5066465 8453.73152  8.11%   444    4s
   264   288 7995.37993   38   51 7819.50665 8453.73152  8.11%   358    5s
*  493   462              77    7883.8456118 8453.48057  7.23%   302    5s
H  495   454                    7893.5128258 8453.48057  7.09%   301    6s
  1487  1298 8091.78577   38  151 7893.51283 8450.86393  7.06%   282   12s
  1496  1304 8235.44862   47  210 7893.51283 8445.88888  7.00%   280   15s
  1515  1317 8201.48037   16  176 7893.51283 8437.41431  6.89%   276   20s
  1524  1326 8437.30959   11  166 7893.51283 8437.30959  6.89%   314   26s
  1656  1420 8354.91008   21  154 7893.51283 8433.78528  6.84%   327   30s
H 2026  1560                    7922.7435079 8433.78528  6.45%   337   38s
H 2028  1488                    7939.4384358 8433.78528  6.23%   337   38s
  2385  1777 8250.50217   55   97 7939.43844 8433.78528  6.23%   342   40s
H 3048  1991                    7946.6751358 8433.59019  6.13%   348   43s
  3168  2001 8102.05385   68   70 7946.67514 8433.59019  6.13%   348   47s
H 3176  1937                    7950.4221743 8433.59019  6.08%   348   47s
  3520  2162 8350.49069   25  204 7950.42217 8433.51274  6.08%   349   50s
  4255  2435 8417.85020   18  193 7950.42217 8432.01067  6.06%   362   59s
  4331  2555 8203.53225   27  195 7950.42217 8432.01067  6.06%   367   60s
  4627  2739 8192.68993   34  134 7950.42217 8432.01067  6.06%   375   65s
  5436  3306 8379.96068   27  207 7950.42217 8427.90976  6.01%   384   70s
  6152  3800     cutoff   55      7950.42217 8425.39227  5.97%   402   75s
  7145  4627 8340.36359   30  176 7950.42217 8422.35179  5.94%   407   81s
H 7390  4666                    7951.1354628 8422.35179  5.93%   409   83s
  7479  4882 8132.05333   28  153 7951.13546 8421.07372  5.91%   411   86s
  8106  5294 8262.76107   26  190 7951.13546 8420.83835  5.91%   425   90s
  8727  5988 8310.17733   26  188 7951.13546 8418.55851  5.88%   436   96s
  9461  6400 8284.34080   23  199 7951.13546 8417.70250  5.87%   435  100s
 10196  7000 8278.25390   41  144 7951.13546 8416.44760  5.85%   437  106s
 10833  7371     cutoff   66      7951.13546 8414.77106  5.83%   441  112s
 10976  7657     cutoff   50      7951.13546 8414.49502  5.83%   442  115s
 11645  8111 8195.28519   28  151 7951.13546 8412.93928  5.81%   446  120s
 12307  8521 8285.60781   32  203 7951.13546 8412.09699  5.80%   453  125s
H13078  8902                    7951.6751358 8409.87975  5.76%   452  136s
H13086  8273                    7985.0485948 8409.87975  5.32%   452  136s
 13534  8905 8256.19505   27  190 7985.04859 8409.18054  5.31%   453  141s
 13933  9208 8198.44081   46  129 7985.04859 8408.14621  5.30%   457  145s
 15018 10478 8301.52999   27  189 7985.04859 8405.96654  5.27%   455  153s
 15882 10689 8217.45937   43  155 7985.04859 8404.99139  5.26%   454  156s
 16151 11262 8068.98963   62   97 7985.04859 8404.47300  5.25%   455  160s
 17350 11999 8054.88960   47  111 7985.04859 8401.90874  5.22%   455  168s
 18049 12504 8186.23648   47  135 7985.04859 8400.50029  5.20%   456  172s
 18683 12817 8325.84010   21  213 7985.04859 8399.70323  5.19%   457  176s
 19182 13154     cutoff   47      7985.04859 8399.00216  5.18%   462  180s

Cutting planes:
  Gomory: 30
  Implied bound: 8
  Projected implied bound: 1
  MIR: 2056
  Flow cover: 2243
  RLT: 1
  Relax-and-lift: 36

Explored 19660 nodes (9162497 simplex iterations) in 180.01 seconds (290.21 work units)
Thread count was 8 (of 8 available processors)

Solution count 10: 7985.05 7951.68 7950.42 ... 7801.65

Time limit reached
Best objective 7.985048594767e+03, best bound 8.397905437414e+03, gap 5.1704%

User-callback calls 65249, time in user-callback 0.07 sec
